
Gurobi 10.0.1 (linux64) logging started Sun Nov 26 15:43:57 2023

Set parameter LogFile to value "ArtificialInstance/ExperimentV2/S3T3K3/AdRo/gurobiDoRo16.txt"
Gurobi Optimizer version 10.0.1 build v10.0.1rc0 (linux64)

CPU model: AMD EPYC 7H12 64-Core Processor, instruction set [SSE2|AVX|AVX2]
Thread count: 128 physical cores, 128 logical processors, using up to 32 threads

Academic license 656792 - for non-commercial use only - registered to b.___@student.vu.nl
Optimize a model with 12923 rows, 12505 columns and 48371 nonzeros
Model fingerprint: 0xf16f8d7c
Variable types: 1 continuous, 12504 integer (12504 binary)
Coefficient statistics:
  Matrix range     [1e+00, 4e+01]
  Objective range  [1e+00, 2e+01]
  Bounds range     [1e+00, 1e+00]
  RHS range        [1e+00, 1e+00]
Presolve removed 5295 rows and 5071 columns
Presolve time: 0.13s
Presolved: 7628 rows, 7434 columns, 28620 nonzeros
Variable types: 1 continuous, 7433 integer (7433 binary)

Root relaxation: objective 1.214797e+02, 2778 iterations, 0.13 seconds (0.09 work units)

    Nodes    |    Current Node    |     Objective Bounds      |     Work
 Expl Unexpl |  Obj  Depth IntInf | Incumbent    BestBd   Gap | It/Node Time

H    0     0                     121.4796822   39.66766  67.3%     -    0s
     0     0          -    0       121.47968  121.47968  0.00%     -    0s

Explored 1 nodes (3659 simplex iterations) in 0.33 seconds (0.23 work units)
Thread count was 32 (of 128 available processors)

Solution count 1: 121.48 

Optimal solution found (tolerance 1.00e-04)
Best objective 1.214796822452e+02, best bound 1.214796822452e+02, gap 0.0000%
